22364
1 0 1 1 0 1 1 1 1 1 1 1 1 0 0 1 1 0 0 1 0 1 1 1 1 0 0 1 1 1 
7 19 21 27 2 12 15 27 22 28 29 28 10 3 28 7 3 10 22 0 27 16 5 24 10 27 27 19 29 2 19 19 19 16 27 6 8 8 24 16 7 9 6 29 8 19 3 21 19 10 24 16 24 16 8 6 11 9 22 7 29 0 7 8 3 11 5 19 28 12 7 12 19 9 23 23 10 23 8 16 10 0 9 7 29 10 6 5 27 7 28 6 7 11 2 3 11 6 0 28 28 15 12 7 29 0 29 24 22 3 19 29 27 12 12 8 28 7 0 8 9 11 28 19 9 16 2 11 19 0 28 24 11 10 23 9 3 3 28 10 12 22 11 11 11 5 24 15 27 7 24 0 23 0 8 11 2 15 3 3 3 27 10 24 5 27 5 29 3 21 5 8 28 10 9 2 0 23 29 23 5 21 2 6 12 8 28 23 0 21 2 21 6 29 11 12 7 15 23 6 

Total Run Time: 565715 ms.
